solutions/Insertion/cheapest/X-n110-k13.txt
[[[14], [14, 49], [14, 49, 3], [14, 49, 3, 108], [14, 49, 3, 108, 91], [14, 49, 3, 108, 38, 91], [14, 49, 3, 108, 5, 38, 91], [14, 49, 3, 108, 5, 38, 91]], [[6], [6, 109], [6, 109, 18], [6, 109, 18, 69], [6, 109, 18, 69, 30], [6, 109, 18, 69, 80, 30], [6, 109, 18, 69, 80, 71, 30], [6, 109, 18, 69, 80, 71, 2, 30], [6, 109, 18, 69, 80, 71, 2, 56, 30], [6, 109, 18, 69, 80, 71, 2, 56, 30]], [[19], [19, 52], [19, 52, 50], [19, 52, 50, 68], [19, 52, 50, 68, 41], [19, 52, 50, 68, 41, 12], [19, 52, 50, 68, 41, 12, 58], [19, 52, 50, 68, 41, 12, 58, 62], [19, 52, 50, 68, 41, 12, 58, 62]], [[8], [8, 100], [8, 100, 40], [8, 100, 40, 47], [8, 100, 40, 47, 86], [8, 100, 40, 47, 86, 10], [8, 100, 40, 47, 86, 10, 63], [8, 100, 40, 47, 86, 10, 63, 72], [8, 100, 40, 47, 86, 10, 63, 72]], [[46], [46, 77], [46, 77, 89], [46, 77, 89, 45], [46, 77, 89, 45, 34], [46, 77, 89, 45, 34, 67], [46, 77, 89, 45, 34, 67, 51], [46, 77, 89, 45, 34, 67, 51, 85], [46, 77, 89, 45, 34, 67, 51, 85]], [[1], [1, 79], [1, 79, 32], [1, 79, 32, 105], [1, 79, 32, 105, 90], [1, 79, 32, 105, 90, 16], [1, 79, 32, 105, 90, 16, 78], [1, 79, 32, 105, 90, 16, 78, 29], [1, 79, 32, 105, 90, 16, 78, 29]], [[54], [54, 39], [54, 39, 28], [54, 39, 28, 31], [54, 39, 28, 31, 17], [54, 39, 28, 31, 17, 27], [54, 39, 28, 31, 17, 27, 95], [54, 39, 28, 31, 17, 27, 95, 96], [54, 39, 28, 31, 17, 27, 95, 96, 88], [54, 39, 28, 31, 17, 27, 95, 96, 88]], [[25], [25, 103], [25, 103, 24], [25, 103, 24, 84], [25, 103, 24, 84, 4], [25, 103, 24, 84, 4, 101], [25, 103, 24, 84, 4, 101, 102], [25, 103, 24, 84, 4, 101, 102, 33], [25, 103, 24, 84, 4, 101, 102, 33, 9], [25, 103, 24, 84, 4, 101, 102, 33, 9, 55], [25, 103, 24, 84, 4, 101, 102, 33, 9, 55]], [[48], [48, 57], [48, 57, 82], [48, 57, 82, 107], [48, 57, 82, 107, 13], [48, 57, 82, 107, 13, 23], [48, 57, 82, 107, 13, 23, 70], [48, 57, 82, 107, 13, 23, 70]], [[11], [11, 87], [11, 87, 15], [11, 87, 15, 53], [11, 87, 15, 53, 26], [11, 87, 15, 53, 26, 98], [11, 87, 15, 53, 26, 98, 106], [11, 87, 15, 53, 26, 98, 106, 42], [11, 87, 15, 53, 26, 98, 106, 42, 97], [11, 87, 15, 53, 26, 98, 106, 42, 97]], [[99], [99, 65], [99, 65, 36], [99, 65, 36, 43], [99, 65, 36, 43, 93], [99, 65, 36, 43, 93, 104], [99, 65, 36, 43, 93, 104, 60], [99, 65, 36, 43, 93, 104, 60, 61], [99, 65, 36, 43, 93, 104, 60, 61]], [[73], [73, 35], [73, 35, 7], [73, 35, 7, 37], [73, 35, 7, 37, 94], [73, 35, 7, 37, 94, 81], [73, 35, 7, 37, 94, 81, 44], [73, 35, 7, 37, 94, 81, 44, 74], [73, 35, 7, 37, 94, 81, 44, 74]], [[92], [92, 20], [92, 20, 66], [92, 20, 66, 76], [92, 20, 66, 76, 83], [92, 20, 66, 76, 83, 22], [92, 20, 66, 76, 83, 22, 64], [92, 20, 66, 76, 83, 22, 64, 59], [92, 20, 66, 76, 83, 22, 64, 59]], [[21], [21, 75], [21, 75]]]