solutions/Insertion/cheapest/X-n110-k13.sol
Route #1: 14 49 3 108 5 38 91
Route #2: 6 109 18 69 80 71 2 56 30
Route #3: 19 52 50 68 41 12 58 62
Route #4: 8 100 40 47 86 10 63 72
Route #5: 46 77 89 45 34 67 51 85
Route #6: 1 79 32 105 90 16 78 29
Route #7: 54 39 28 31 17 27 95 96 88
Route #8: 25 103 24 84 4 101 102 33 9 55
Route #9: 48 57 82 107 13 23 70
Route #10: 11 87 15 53 26 98 106 42 97
Route #11: 99 65 36 43 93 104 60 61
Route #12: 73 35 7 37 94 81 44 74
Route #13: 92 20 66 76 83 22 64 59
Route #14: 21 75
cost: 19181
